Gurobi 12.0.1:   lim:time = 28800
  mip:bestbound = 1
Set parameter LogToConsole to value 1
  tech:outlev = 1
Set parameter InfUnbdInfo to value 1
Gurobi Optimizer version 12.0.1 build v12.0.1rc0 (win64 - Windows 11.0 (22631.2))

CPU model: Intel(R) Core(TM) i7-10700 CPU @ 2.90GHz, instruction set [SSE2|AVX|AVX2]
Thread count: 8 physical cores, 16 logical processors, using up to 16 threads

Non-default parameters:
TimeLimit  28800
InfUnbdInfo  1

Optimize a model with 306 rows, 705 columns and 3779 nonzeros
Model fingerprint: 0xb247aee6
Model has 3 quadratic objective terms
Model has 8 quadratic constraints
Model has 117 simple general constraints
  117 AND
Variable types: 17 continuous, 688 integer (0 binary)
Coefficient statistics:
  Matrix range     [1e+00, 1e+05]
  QMatrix range    [7e+00, 2e+01]
  QLMatrix range   [1e+00, 2e+01]
  Objective range  [6e+00, 3e+02]
  QObjective range [7e+00, 2e+01]
  Bounds range     [1e+00, 1e+00]
  RHS range        [1e+00, 1e+05]
  QRHS range       [5e+01, 1e+02]
Presolve added 377 rows and 0 columns
Presolve removed 0 rows and 32 columns
Presolve time: 0.01s
Presolved: 923 rows, 910 columns, 5267 nonzeros
Variable types: 13 continuous, 897 integer (897 binary)

Root relaxation: objective 9.689285e+02, 46 iterations, 0.00 seconds (0.00 work units)

    Nodes    |    Current Node    |     Objective Bounds      |     Work
 Expl Unexpl |  Obj  Depth IntInf | Incumbent    BestBd   Gap | It/Node Time

     0     0  968.92853    0   14          -  968.92853      -     -    0s
H    0     0                    1736.4400000  968.92853  44.2%     -    0s
H    0     0                    1474.5100000  968.92853  34.3%     -    0s
H    0     0                    1206.3700000  968.92853  19.7%     -    0s
     0     0  992.61745    0   21 1206.37000  992.61745  17.7%     -    0s
     0     0 1028.02000    0    9 1206.37000 1028.02000  14.8%     -    0s
     0     0 1028.02000    0    9 1206.37000 1028.02000  14.8%     -    0s
     0     0 1028.02000    0    9 1206.37000 1028.02000  14.8%     -    0s
     0     0 1028.02000    0   14 1206.37000 1028.02000  14.8%     -    0s
     0     0 1028.02000    0   36 1206.37000 1028.02000  14.8%     -    0s
     0     0 1028.02000    0    8 1206.37000 1028.02000  14.8%     -    0s
     0     0 1028.02000    0    8 1206.37000 1028.02000  14.8%     -    0s
     0     0 1028.02000    0    8 1206.37000 1028.02000  14.8%     -    0s
     0     2 1028.02000    0    8 1206.37000 1028.02000  14.8%     -    0s
H   57    58                    1180.7200000 1028.06153  12.9%  10.8    0s
*   69    80              10    1179.0000000 1028.06153  12.8%  10.5    0s
H  114    91                    1166.5700000 1028.07583  11.9%   9.5    0s

Cutting planes:
  Learned: 1
  Lift-and-project: 1
  Implied bound: 3
  MIR: 3
  Inf proof: 2

Explored 539 nodes (5117 simplex iterations) in 0.28 seconds (0.25 work units)
Thread count was 16 (of 16 available processors)

Solution count 6: 1166.57 1179 1180.72 ... 1736.44

Optimal solution found (tolerance 1.00e-04)
Best objective 1.166570000000e+03, best bound 1.166570000000e+03, gap 0.0000%

AMPL MP initial flat model has 588 variables (0 integer, 571 binary);
Objectives: 1 quadratic; 
Constraints:  306 linear; 8 quadratic;
Logical expressions:  117 and;

AMPL MP final model has 705 variables (0 integer, 688 binary);
Objectives: 1 quadratic; 
Constraints:  306 linear; 8 quadratic;
Logical expressions:  117 and;


-----RESULTS INFO-----
running_time:  0.34299999999999997
TC.best_bound:  1166.57
TC:  1166.57
MIP Gap (%):  0
=== Vehicle Routes ===
Vehicle 1: 0 → 3
Vehicle 1: 1 → 0
Vehicle 1: 2 → 1
Vehicle 1: 3 → 10
Vehicle 1: 5 → 2
Vehicle 1: 10 → 5
Vehicle 2: 0 → 12
Vehicle 2: 12 → 0
Vehicle 3: 0 → 4
Vehicle 3: 4 → 0

=== Full Vehicle Routes ===
Vehicle 1: 0 → 3 → 10 → 5 → 2 → 1 → 0
Vehicle 2: 0 → 12 → 0
Vehicle 3: 0 → 4 → 0
Arc used by MRT line: y variables:
MRT used: 12 → 13
Customer assigment to PL: u variables:
6 13
7 12
8 13
9 12
11 13
Node is served by regular vehicle: g variables:
1
2
3
4
5
10
12
Customer assigment to Home delivery: gm variables:
1
2
3
4
5
10
Customer's demand delivered to PL: l variables:
6
7
8
9
11
